3 3 2
30 2 141 1 59 2 93 0 135 1 135 2 111 1 124 0 110 2 49 0 176 2 109 1 197 0 175 2 149 1 72 0 198 2 91 1 68 2 174 1 115 0 192 2 152 1 40 0 158 2 67 1 181 0 30 1 43 2 89 1 124 
30 0 93 1 71 0 4 2 134 0 34 2 76 1 152 0 84 2 106 0 97 2 183 0 49 2 197 0 43 2 163 1 94 0 58 1 6 2 149 1 93 0 115 2 100 0 142 1 128 0 173 1 23 0 152 2 35 1 28 2 35 
30 0 67 1 107 2 58 1 97 2 134 1 13 0 182 1 181 2 185 0 122 1 71 0 134 1 100 2 151 0 79 2 142 0 85 2 130 0 87 1 65 2 37 1 12 0 108 2 83 0 23 1 79 0 185 1 47 0 38 2 59 

-------------
